p cnf 22 29
 2 0
-20 -17 -13 -12 -9 -8 1 6 8 9 10 11 12 13 16 17 18 20 0
-11 -17 -18 2 7 9 11 12 14 17 18 0
-6 -3 -4 -14 -20 -21 -7 -8 -22 2 3 4 6 7 8 11 13 14 19 20 21 22 0
-5 -10 -15 1 2 3 5 7 9 10 11 14 15 16 18 19 20 21 0
-22 -8 -7 -19 -6 -14 -20 -18 -3 -21 -9 -16 -15 -4 -10 -11 -5 -1 1 2 3 4 5 6 7 8 9 10 11 12 13 14 15 16 17 18 19 20 21 22 0
-3 1 2 3 4 5 6 7 8 9 10 11 12 13 14 15 16 17 18 19 20 21 22 0
-5 -20 -17 -6 -18 -13 -15 -9 -10 -21 -16 -14 -1 -8 -22 1 3 4 5 6 8 9 10 11 12 13 14 15 16 17 18 19 20 21 22 0
-14 -17 -7 -3 -19 -1 -6 -22 -18 -16 1 3 4 6 7 14 16 17 18 19 21 22 0
 1 17 4 5 6 11 15 0
-19 -5 -7 -18 -2 -16 -9 -13 -15 -4 2 4 5 7 9 13 15 16 18 19 0
-7 -2 1 2 3 4 5 6 7 8 9 10 11 12 13 14 15 16 17 18 19 20 21 22 0
-13 1 9 11 13 19 21 0
-17 17 2 0
-21 4 11 13 14 17 18 21 22 0
-2 -19 -15 -20 -7 -9 -17 1 2 3 4 6 7 9 11 13 14 15 16 17 18 19 20 0
 13 18 11 21 0
-5 -13 -15 -4 -2 2 3 4 5 7 9 12 13 15 16 17 19 20 21 0
-14 -16 -9 -6 -1 -20 -19 -5 -21 -7 -4 1 3 4 5 6 7 9 14 16 19 20 21 0
-18 -14 -12 -8 -3 -22 -15 1 2 3 4 5 6 7 8 9 11 12 13 14 15 16 17 18 19 20 22 0
-15 -20 -18 2 6 7 8 15 18 20 0
-6 6 0
-5 -10 1 2 4 5 7 8 9 10 12 15 16 17 19 21 0
-17 -2 -15 -6 -7 -3 -8 2 3 4 6 7 8 10 11 12 13 14 15 17 18 19 20 21 22 0
-20 20 0
-3 -12 -22 -19 -15 -2 -8 -1 -13 -9 -21 1 2 3 4 6 8 9 10 12 13 14 15 16 18 19 20 21 22 0
-15 -17 -18 -9 -1 -3 -10 -19 -20 -21 -16 -8 1 3 4 5 6 8 9 10 11 12 13 14 15 16 17 18 19 20 21 22 0
-1 -12 -15 -22 -4 -11 -18 -6 1 2 4 6 11 12 13 14 15 18 22 0
